Solution in this episode: [171, 357, 188, 34, 324, 493, 307, 408, 18, 204, 103, 119, 154, 51, 426, 391, 239, 221, 460, 476, 69, 340, 290, 272, 256, 374, 1, 85, 443, 136, 173, 359, 191, 36, 180, 367, 327, 495, 181, 184, 309, 410, 193, 370, 19, 208, 105, 121, 372, 196, 42, 155, 54, 328, 429, 393, 199, 47, 241, 332, 223, 502, 316, 203, 49, 461, 478, 417, 71, 342, 336, 291, 274, 27, 211, 257, 378, 337, 3, 87, 444, 139, 213, 112, 125, 506, 318, 507, 321, 129, 163, 61, 432, 420, 30, 398, 422, 32, 434, 215, 115, 219, 118, 130, 133, 400, 248, 231, 164, 169, 469, 62, 485, 65, 437, 76, 439, 346, 402, 249, 406, 349, 299, 234, 278, 252, 235, 472, 487, 79, 281, 261, 475, 491, 352, 300, 84, 356, 265, 380, 285, 268, 303, 286, 384, 386, 5, 270, 388, 10, 93, 12, 14, 448, 98, 101, 451, 146, 453, 457, 148, 151]
